 NOTE: Siesta V5 introduces some new defaults for basis-set generation
 NOTE: which might lead to slightly different numerical results.
 NOTE: Please see the manual for full details and compatibility measures.

reinit: Reading from standard input
reinit: Dumping input in INPUT_TMP.73120
************************** Dump of input data file ****************************
#DON'T FORGET TO PUT THE .PSF FILE TO THE SAME DIRECTORY
SystemName          Dimer of Carbon                     # Name of the system we want to investigate
SystemLabel         dimer                            # name of output files
NumberOfAtoms       2                                # how many number in the unit cell? Dimer -> 2 atoms
NumberOfSpecies     1                                # how many different type of atoms? Dimer -> 1
%block ChemicalSpeciesLabel
 1  6  C        # Species index, atomic number, species label
%endblock ChemicalSpeciesLabel
# STRUCTURAL INFORMATION
LatticeConstant     1.0 Ang
%block LatticeVectors
   7.000000    0.000000    0.000000
    0.000000   7.000000    0.000000
    0.000000    0.000000   7.000000
%endblock LatticeVectors
AtomicCoordinatesFormat Ang
%block AtomicCoordinatesAndAtomicSpecies
    0.000000     0.000000     0.000000   1
    2.000000     0.000000     0.000000   1
%endblock AtomicCoordinatesAndAtomicSpecies
# XC
xc.functional	        GGA
xc.authors		PBE
# GRID
# MeshCutoff 		300. Ry
# Solution Method
SolutionMethod		diagon
ElectronicTemperature	300 K
# SCF
SCF.DM.Tolerance         5.E-6
SCF.H.Tolerance          5.E-5 eV
SCF.Mix                  Hamiltonian
# SCF.Mix.Spin             all
SCF.Mixer.Method         Pulay
SCF.Mixer.Weight         0.15
SCF.Mixer.Kick           10
SCF.Mixer.History        20
MaxSCFIterations	     200
DM.UseSaveDM	     	 T
SaveHS                   T
# MD
MD.TypeOfRun   	        CG
MD.Steps                100
MD.MaxCGDispl           0.2 Ang #0.02 Ang
MD.UseSaveXV            T
MD.MaxForceTol          0.0001 eV/Ang
MD.MaxStressTol         0.0001 GPa
MD.TargetPressure       0.0001 GPa
# OUTPUT OPTIONS
WriteEigenvalues       F
WriteForces            T
WriteCoorStep          T
WriteCoorXmol          T     # generate the .xyz file
WriteMDXmol            T     # generate the .ani file
WriteMullikenPop       1
Write.HirshfeldPop     T
Write.VoronoiPop       T
Write.DM.NetCDF        T
Write.DMHS.NetCDF      T
************************** End of input data file *****************************

reinit: -----------------------------------------------------------------------
reinit: System Name: Dimer of Carbon
reinit: -----------------------------------------------------------------------
reinit: System Label: dimer
reinit: -----------------------------------------------------------------------

initatom: Reading input for the pseudopotentials and atomic orbitals ----------
Species number:   1 Atomic number:    6 Label: C

Ground state valence configuration (from tables):   2s02  2p02  3d00  4f00

---- Processing specs for species: C
Reading pseudopotential information in formatted form from:
  C.psf

---- Pseudopotential check for  C

Pseudized shells:
2s( 2.00) rc: 1.56
2p( 2.00) rc: 1.56
3d( 0.00) rc: 1.56
4f( 0.00) rc: 1.56
Valence configuration for ps generation: (assumed as above)
For C, standard SIESTA heuristics set lmxkb to 3
 (one more than the basis l, including polarization orbitals).
Use PS.lmax or PS.KBprojectors blocks to override.

<basis_specs>
C                    Z=   6    Mass=  12.011        Charge= 0.17977+309
Lmxo=2 Lmxkb= 3    BasisType=split      Semic=F
L=0  Nsemic=0  Cnfigmx=2
          i=1  nzeta=2  polorb=0  (2s)
            splnorm:   0.15000
               vcte:    40.000
               rinn:  -0.90000
               qcoe:    0.0000
               qyuk:    0.0000
               qwid:   0.10000E-01
                rcs:    0.0000      0.0000
            lambdas:    1.0000      1.0000
L=1  Nsemic=0  Cnfigmx=2
          i=1  nzeta=2  polorb=1  (2p)  (to be polarized perturbatively)
            splnorm:   0.15000
               vcte:    40.000
               rinn:  -0.90000
               qcoe:    0.0000
               qyuk:    0.0000
               qwid:   0.10000E-01
                rcs:    0.0000      0.0000
            lambdas:    1.0000      1.0000
L=2  Nsemic=0  Cnfigmx=3
          i=1  nzeta=0  polorb=0  (3d)  (perturbative polarization orbital) (from 2p)
L=0  Nkbl=1  erefs: 0.17977+309
L=1  Nkbl=1  erefs: 0.17977+309
L=2  Nkbl=1  erefs: 0.17977+309
L=3  Nkbl=1  erefs: 0.17977+309
</basis_specs>

Using PAO.SplitTailNorm
atom: Called for C                     (Z =   6)
Maximum radius (at nrval) set to   50.00000 8518

read_vps: Pseudopotential generation method:
read_vps: ATM 3.2.2 Troullier-Martins
Valence charge in pseudo generation:    4.00000

xc_check: Exchange-correlation functional:
xc_check: GGA Perdew, Burke & Ernzerhof 1996
V l=0 = -2*Zval/r beyond r=  1.5347
V l=1 = -2*Zval/r beyond r=  1.5332
V l=2 = -2*Zval/r beyond r=  1.5347
V l=3 = -2*Zval/r beyond r=  1.5347
All V_l potentials equal beyond r=  1.4890
This should be close to max(r_c) in ps generation
All pots = -2*Zval/r beyond r=  1.5347
Using small-core scheme (local charge) for Vlocal

VLOCAL_FROM_CHLOCAL: 99.0% of the norm of Vloc inside     19.577 Ry
VLOCAL_FROM_CHLOCAL: 99.9% of the norm of Vloc inside     44.617 Ry
atom: Maximum radius for chlocal:    1.77931
atom: Maximum radius for r*vlocal+2*Zval:    1.63022

KBgen: Kleinman-Bylander projectors:
GHOST: No ghost state for L =  0
   l= 0   rc=  1.646704   el= -1.010689   Ekb=  5.277734   kbcos=  0.315993
GHOST: No ghost state for L =  1
   l= 1   rc=  1.648361   el= -0.388490   Ekb= -4.115733   kbcos= -0.351483
GHOST: No ghost state for L =  2
   l= 2   rc=  1.735131   el=  0.012917   Ekb= -1.012311   kbcos= -0.009283
GHOST: No ghost state for L =  3
   l= 3   rc=  1.777521   el=  0.019225   Ekb= -0.424772   kbcos= -0.001204

KBgen: Total number of Kleinman-Bylander projectors:  16
atom: -------------------------------------------------------------------------

atom: SANKEY-TYPE ORBITALS:
atom: Selected multiple-zeta basis: split

SPLIT: Orbitals with angular momentum L= 0

SPLIT: Basis orbitals for state 2s

SPLIT: PAO cut-off radius determined from an
SPLIT: energy shift=  0.010000 Ry
Split based on tail norm

   izeta = 1
                 lambda =    1.000000
                     rc =    4.484389
                 energy =   -0.999400
                kinetic =    0.879719
    potential(screened) =   -1.879119
       potential(ionic) =   -5.474723

   izeta = 2
                 rmatch =    3.048210
              splitnorm =    0.150000
                 energy =   -0.737057
                kinetic =    1.553917
    potential(screened) =   -2.290974
       potential(ionic) =   -6.191799

SPLIT: Orbitals with angular momentum L= 1

SPLIT: Basis orbitals for state 2p

SPLIT: PAO cut-off radius determined from an
SPLIT: energy shift=  0.010000 Ry
Split based on tail norm

   izeta = 1
                 lambda =    1.000000
                     rc =    5.435719
                 energy =   -0.377283
                kinetic =    2.459011
    potential(screened) =   -2.836294
       potential(ionic) =   -6.303833

   izeta = 2
                 rmatch =    3.691839
              splitnorm =    0.150000
                 energy =   -0.247686
                kinetic =    3.567780
    potential(screened) =   -3.815466
       potential(ionic) =   -7.634895

POLgen: Perturbative polarization orbital with L=  2

POLgen: Polarization orbital for state 2p
Split based on tail norm

   izeta = 1
                     rc =    5.435719
                 energy =    1.173953
                kinetic =    2.358612
    potential(screened) =   -1.184659
       potential(ionic) =   -4.054396
atom: Total number of Sankey-type orbitals: 13

atm_pop: Valence configuration (for local Pseudopot. screening):
 2s( 2.00)
 2p( 2.00)
 3d( 0.00)
Vna: chval, zval:    4.00000   4.00000

Vna:  Cut-off radius for the neutral-atom potential:   5.435719

atom: _________________________________________________________________________

prinput: Basis input

PAO.BasisType split

%block ChemicalSpeciesLabel
    1    6 C                       # Species index, atomic number, species label
%endblock ChemicalSpeciesLabel

%block PAO.Basis                 # Define Basis set
# WARNING: This information might be incomplete!
C                     2                    # Species label, number of l-shells
 n=2   0   2                         # n, l, Nzeta
   4.484      3.048
   1.000      1.000
 n=2   1   2 P   1                   # n, l, Nzeta, Polarization, NzetaPol
   5.436      3.692
   1.000      1.000
%endblock PAO.Basis

prinput: ----------------------------------------------------------------------

Dumping basis to NetCDF file C.ion.nc
coor:   Atomic-coordinates input format  =     Cartesian coordinates
coor:                                          (in Angstroms)

siesta: WARNING: XV file not found

siesta: Atomic coordinates (Bohr) and species
siesta:      0.00000   0.00000   0.00000  1        1
siesta:      3.77945   0.00000   0.00000  1        2

siesta: System type = chain

initatomlists: Number of atoms, orbitals, and projectors:      2    26    32

coxmol: Writing XMOL coordinates into file dimer.xyz

siesta: ******************** Simulation parameters ****************************
siesta:
siesta: The following are some of the parameters of the simulation.
siesta: A complete list of the parameters used, including default values,
siesta: can be found in file out.fdf
siesta:
redata: Spin configuration                          = none
redata: Number of spin components                   = 1
redata: Time-Reversal Symmetry                      = T
redata: Spin spiral                                 = F
redata: Long output                                 =   F
redata: Number of Atomic Species                    =        1
redata: Charge density info will appear in .RHO file
redata: Write Mulliken charges (when)               = geometry+end
redata: Write Mulliken Pop.                         = Atomic and Orbital charges
redata: Write Hirshfeld charges (when)              = end
redata: Write Voronoi charges (when)                = end
redata: Write spin charge (when)                    = none
redata: Matel table size (NRTAB)                    =     1024
redata: Mesh Cutoff                                 =   300.0000 Ry
redata: Net charge of the system                    =     0.0000 |e|
redata: Min. number of SCF Iter                     =        0
redata: Max. number of SCF Iter                     =      200
redata: SCF convergence failure will abort job
redata: SCF mix quantity                            = Hamiltonian
redata: Mix DM or H after convergence               =   F
redata: Recompute H after scf cycle                 =   F
redata: Mix DM in first SCF step                    =   T
redata: Write Pulay info on disk                    =   F
redata: New DM Occupancy tolerance                  = 0.000000000001
redata: No kicks to SCF
redata: DM Mixing Weight for Kicks                  =     0.5000
redata: Require Harris convergence for SCF          =   F
[...]
   scf:    9     -299.877341     -299.874355     -299.921696  0.014407 -7.333306  0.042640
mix: Pulay -- resetting history
mix: switching mixer --> Linear-Kick
   scf:   10     -299.873599     -299.873987     -299.921934  0.001675 -7.333649  0.035394
mix: switching mixer --> Pulay
   scf:   11     -299.832673     -299.857584     -299.916767  0.034581 -7.332514  0.122535
   scf:   12     -299.881087     -299.871991     -299.922442  0.027391 -7.333388  0.002790
   scf:   13     -299.864196     -299.868380     -299.921901  0.009012 -7.335855  0.036032
   scf:   14     -299.875263     -299.872143     -299.922434  0.009533 -7.334192  0.005413
   scf:   15     -299.871468     -299.871808     -299.922447  0.001002 -7.334352  0.001302
   scf:   16     -299.871802     -299.871805     -299.922447  0.000008 -7.334369  0.001285
mix: Pulay -- inversion failed, > SVD [rank/size] 4 / 6
   scf:   17     -299.871793     -299.871799     -299.922447  0.000018 -7.334381  0.001214
mix: Pulay -- inversion failed, > SVD [rank/size] 4 / 7
   scf:   18     -299.871773     -299.871786     -299.922447  0.000038 -7.334390  0.001048
mix: Pulay -- inversion failed, > SVD [rank/size] 4 / 8
   scf:   19     -299.871763     -299.871775     -299.922447  0.000034 -7.334399  0.000903
mix: Pulay -- inversion failed, > SVD [rank/size] 4 / 8
mix: Pulay -- resetting history
mix: switching mixer --> Linear-Kick
   scf:   20     -299.871721     -299.871748     -299.922447  0.000079 -7.334413  0.000563
mix: switching mixer --> Pulay
   scf:   21     -299.871386     -299.871568     -299.922446  0.000526 -7.334412  0.001852
   scf:   22     -299.871837     -299.871703     -299.922447  0.000393 -7.334413  0.000102
   scf:   23     -299.871702     -299.871703     -299.922447  0.000003 -7.334447  0.000014

[...]

outcell: Cell vector modules (Ang)   :    7.000000    7.000000    7.000000
outcell: Cell angles (23,13,12) (deg):     90.0000     90.0000     90.0000
outcell: Cell volume (Ang**3)        :    343.0000
Gamma-point calculation with multiply-connected orbital pairs
Folding of H and S implicitly performed
<dSpData1D:S at geom step 11
  <sparsity:sparsity for geom step 11
    nrows_g=26 nrows=26 sparsity=1.0000 nnzs=676, refcount: 7>
  <dData1D:(new from dSpData1D) n=676, refcount: 1>
refcount: 1>
new_DM -- step:    12
Re-using DM from previous geometries...
Number of DMs in history: 1
 DM extrapolation coefficients:
1   1.00000
New DM after history re-use:
<dSpData2D:SpM extrapolated using coords
  <sparsity:sparsity for geom step 11
    nrows_g=26 nrows=26 sparsity=1.0000 nnzs=676, refcount: 9>
  <dData2D:(temp array for extrapolation) n=676 m=1, refcount: 1>
refcount: 1>
No. of atoms with KB's overlaping orbs in proc 0. Max # of overlaps:       2      26

[...]

        iscf     Eharris(eV)        E_KS(eV)     FreeEng(eV)     dDmax    Ef(eV) dHmax(eV)
   scf:    1     -299.872338     -299.875904     -299.920512  0.020711 -7.351307  0.072951
   scf:    2     -299.269623     -299.666939     -299.752144  0.161695 -7.326232  0.659703
   scf:    3     -299.915278     -299.874338     -299.921910  0.153301 -7.346543  0.031096
   scf:    4     -299.869073     -299.871926     -299.922188  0.007980 -7.341522  0.008320
   scf:    5     -299.872852     -299.872395     -299.922212  0.001278 -7.341228  0.002409
   scf:    6     -299.873144     -299.872774     -299.922211  0.001077 -7.340922  0.002654
   scf:    7     -299.872434     -299.872605     -299.922214  0.000494 -7.341025  0.000488
   scf:    8     -299.872455     -299.872530     -299.922214  0.000214 -7.341096  0.000423
mix: Pulay -- inversion failed, > SVD [rank/size] 4 / 7
   scf:    9     -299.872598     -299.872564     -299.922214  0.000098 -7.341112  0.000039
mix: Pulay -- inversion failed, > SVD [rank/size] 4 / 8
mix: Pulay -- resetting history
mix: switching mixer --> Linear-Kick
   scf:   10     -299.872564     -299.872564     -299.922214  0.000000 -7.341113  0.000035

[...]

        iscf     Eharris(eV)        E_KS(eV)     FreeEng(eV)     dDmax    Ef(eV) dHmax(eV)
   scf:    1     -299.860151     -299.864706     -299.920443  0.021727 -7.325166  0.077427
   scf:    2     -299.798624     -299.858229     -299.879523  0.086939 -7.347233  0.363610
   scf:    3     -299.860008     -299.873840     -299.922051  0.064094 -7.330363  0.029605
   scf:    4     -299.875570     -299.875827     -299.917420  0.017799 -7.330045  0.113378
   scf:    5     -299.864006     -299.871983     -299.922444  0.024003 -7.334873  0.003085
   scf:    6     -299.871706     -299.871845     -299.922447  0.000418 -7.334833  0.001101
   scf:    7     -299.871655     -299.871750     -299.922448  0.000280 -7.334828  0.000190
   scf:    8     -299.871803     -299.871777     -299.922448  0.000079 -7.334823  0.000167
mix: Pulay -- inversion failed, > SVD [rank/size] 4 / 7
   scf:    9     -299.871760     -299.871768     -299.922448  0.000025 -7.334822  0.000054
mix: Pulay -- inversion failed, > SVD [rank/size] 4 / 8
mix: Pulay -- resetting history
mix: switching mixer --> Linear-Kick
   scf:   10     -299.871767     -299.871767     -299.922448  0.000002 -7.334822  0.000043

[...]

        iscf     Eharris(eV)        E_KS(eV)     FreeEng(eV)     dDmax    Ef(eV) dHmax(eV)
   scf:    1     -299.869995     -299.870268     -299.922341  0.004873 -7.331198  0.017320
   scf:    2     -299.875846     -299.875461     -299.918279  0.026169 -7.336320  0.107299
   scf:    3     -299.864265     -299.871628     -299.922440  0.022365 -7.332275  0.002415
   scf:    4     -299.870285     -299.870969     -299.922420  0.001810 -7.333671  0.007069
   scf:    5     -299.872069     -299.871528     -299.922440  0.001576 -7.333382  0.000063
   scf:    6     -299.871524     -299.871526     -299.922440  0.000006 -7.333382  0.000036
   scf:    7     -299.871521     -299.871524     -299.922440  0.000008 -7.333383  0.000004
mix: Pulay -- inversion failed, > SVD [rank/size] 3 / 6
   scf:    8     -299.871524     -299.871524     -299.922440  0.000001 -7.333383  0.000008

[...]

        iscf     Eharris(eV)        E_KS(eV)     FreeEng(eV)     dDmax    Ef(eV) dHmax(eV)
   scf:    1     -299.872473     -299.872592     -299.922386  0.003898 -7.336403  0.013783
   scf:    2     -299.845729     -299.861224     -299.918797  0.024171 -7.332103  0.098631
   scf:    3     -299.879102     -299.871823     -299.922447  0.021706 -7.335537  0.002545
   scf:    4     -299.871396     -299.871611     -299.922447  0.000673 -7.334655  0.001502
   scf:    5     -299.871871     -299.871742     -299.922448  0.000375 -7.334571  0.000198
   scf:    6     -299.871728     -299.871735     -299.922448  0.000020 -7.334576  0.000113
   scf:    7     -299.871718     -299.871727     -299.922448  0.000024 -7.334583  0.000012
   scf:    8     -299.871728     -299.871727     -299.922448  0.000002 -7.334584  0.000020

[...]

cgvc: Finished line minimization    5.  Mean atomic displacement =    0.0001

[...]

                        Begin CG opt. move =     24

outcoor: Atomic coordinates (Ang):
    0.36090952   -0.00000000    0.00000000   1       1  C
    1.65161744   -0.00000000    0.00000001   1       2  C

outcell: Unit cell vectors (Ang):
        7.000000    0.000000    0.000000
        0.000000    7.000000    0.000000
        0.000000    0.000000    7.000000

outcell: Cell vector modules (Ang)   :    7.000000    7.000000    7.000000
outcell: Cell angles (23,13,12) (deg):     90.0000     90.0000     90.0000
outcell: Cell volume (Ang**3)        :    343.0000
Gamma-point calculation with multiply-connected orbital pairs
Folding of H and S implicitly performed
<dSpData1D:S at geom step 24
  <sparsity:sparsity for geom step 24
    nrows_g=26 nrows=26 sparsity=1.0000 nnzs=676, refcount: 7>
  <dData1D:(new from dSpData1D) n=676, refcount: 1>
refcount: 1>
new_DM -- step:    25
Re-using DM from previous geometries...
Number of DMs in history: 1
 DM extrapolation coefficients:
1   1.00000
New DM after history re-use:
<dSpData2D:SpM extrapolated using coords
  <sparsity:sparsity for geom step 24
    nrows_g=26 nrows=26 sparsity=1.0000 nnzs=676, refcount: 9>
  <dData2D:(temp array for extrapolation) n=676 m=1, refcount: 1>
refcount: 1>
No. of atoms with KB's overlaping orbs in proc 0. Max # of overlaps:       2      26

InitMesh: MESH = 80 x 80 x 80 = 512000
InitMesh: Mesh cutoff (required, used) =   300.000   360.982 Ry
New grid distribution [1]: sub = 2

        iscf     Eharris(eV)        E_KS(eV)     FreeEng(eV)     dDmax    Ef(eV) dHmax(eV)
   scf:    1     -299.871728     -299.871729     -299.922455  0.000028 -7.334594  0.000113
   scf:    2     -299.871839     -299.871784     -299.922455  0.000170 -7.334626  0.000753
   scf:    3     -299.871687     -299.871736     -299.922455  0.000150 -7.334600  0.000019
   scf:    4     -299.871736     -299.871736     -299.922455  0.000001 -7.334606  0.000006

SCF Convergence by DM+H criterion
max |DM_out - DM_in|         :     0.0000008589
max |H_out - H_in|      (eV) :     0.0000061492
SCF cycle converged after 4 iterations

Using DM_out to compute the final energy and forces
No. of atoms with KB's overlaping orbs in proc 0. Max # of overlaps:       2      26

siesta: E_KS(eV) =             -299.8717

siesta: Atomic forces (eV/Ang):
     1   -0.000066   -0.000000    0.000000
     2    0.000062    0.000000    0.000000
   Tot   -0.000004    0.000000    0.000000
   Max    0.000066
   Res    0.000037    sqrt( Sum f_i^2 / 3N )
   Max    0.000066    constrained

Stress tensor Voigt[x,y,z,yz,xz,xy] (kbar):       -0.02       -0.00       -0.00        0.00        0.00       -0.00
(Free)E + p*V (eV/cell)     -299.9204
Target enthalpy (eV/cell)     -299.9222

[...]

outcoor: Relaxed atomic coordinates (Ang):
    0.36090952   -0.00000000    0.00000000   1       1  C
    1.65161744   -0.00000000    0.00000001   1       2  C

coxmol: Writing XMOL coordinates into file dimer.xyz

siesta: Program's energy decomposition (eV):
siesta: Ebs     =       -87.215034
siesta: Eions   =       522.735435
siesta: Ena     =       125.419445
siesta: Ekin    =       189.295049
siesta: Enl     =        -7.115975
siesta: Eso     =         0.000000
siesta: Edftu   =         0.000000
siesta: DEna    =         0.520585
siesta: DUscf   =         0.341658
siesta: DUext   =         0.000000
siesta: Ex      =       -78.128797
siesta: Ec      =        -7.468267
siesta: Exc     =       -85.597064
siesta: EbV     =         0.000000
siesta: eta*DQ  =         0.000000
siesta: Emadel  =         0.000000
siesta: Emeta   =         0.000000
siesta: Emolmec =         0.000000
siesta: Ekinion =         0.000000
siesta: Eharris =      -299.871736
siesta: Etot    =      -299.871736
siesta: FreeEng =      -299.922455

siesta: Final energy (eV):
siesta:  Band Struct. =     -87.215034
siesta:       Kinetic =     189.295049
siesta:       Hartree =     237.098888
siesta:         Edftu =       0.000000
siesta:       Eso     =       0.000000
siesta:    Ext. field =       0.000000
siesta:         Exch. =     -78.128797
siesta:         Corr. =      -7.468267
siesta:     Bulk bias =       0.000000
siesta:   Exch.-corr. =     -85.597064
siesta:  Ion-electron =    -639.742135
siesta:       Ion-ion =      -0.926474
siesta:       Ekinion =       0.000000
siesta: D3 dispersion =       0.000000
siesta:         Total =    -299.871736
siesta:         Fermi =      -7.334606

siesta: Stress tensor (static) (eV/Ang**3):
siesta:    -0.000014   -0.000000    0.000000
siesta:    -0.000000   -0.000002    0.000000
siesta:     0.000000    0.000000   -0.000002

siesta: Cell volume =        343.000000 Ang**3

siesta: Pressure (static):
siesta:                Solid            Molecule  Units
siesta:           0.00000007          0.00000007  Ry/Bohr**3
siesta:           0.00000613          0.00000605  eV/Ang**3
siesta:           0.00982056          0.00969204  kBar
(Free)E+ p_basis*V_orbitals  =        -299.163050
(Free)Eharris+ p_basis*V_orbitals  =        -299.163050

mulliken: Atomic and Orbital Populations:

Species: C
Atom  Qatom  Qorb
               3Pdxy   3Pdyz   3Pdz2   3Pdxz   3Pdx2-y2
   1  4.000   1.078   0.270   0.725   0.725   0.732   0.180   0.180   0.056
              0.018  -0.000   0.005   0.018   0.015
   2  4.000   1.078   0.270   0.725   0.725   0.732   0.180   0.180   0.056
              0.018   0.000   0.005   0.018   0.015

mulliken: Qtot =        8.000

Mulliken Atomic Populations:
Atom #   charge [q] valence [e]  Species
     1     0.000000    4.000000  C
     2    -0.000000    4.000000  C
 Total    -0.000000

siesta: Electric dipole (a.u.)  =    0.000000    0.000000   -0.000000
siesta: Electric dipole (Debye) =    0.000000    0.000000   -0.000000

Hirshfeld Atomic Populations:
Atom #   charge [q] valence [e]  Species
     1    -0.000001    4.000001  C
     2    -0.000001    4.000001  C
 Total    -0.000001

Voronoi Atomic Populations:
Atom #   charge [q] valence [e]  Species
     1     0.000005    3.999995  C
     2    -0.000006    4.000006  C
 Total    -0.000001

cite: Please indicate the Siesta version in published work: 5.2.2
cite: This calculation has made use of features in the following articles
cite: which we encourage you to cite in published work.
cite: (Please see "dimer.bib" for a BibTeX file.)
        Primary SIESTA paper
          DOI: www.doi.org/10.1088/0953-8984/14/11/302

Routine            Calls   Time/call    Tot.time        %
siesta                 1     160.905     160.905   100.00
Setup                  1       0.147       0.147     0.09
bands                  1       0.000       0.000     0.00
KSV_init               1       0.000       0.000     0.00
IterGeom              25       6.400     160.009    99.44
geom_init             25       0.883      22.083    13.72
state_init            25       0.008       0.191     0.12
hsparse               25       0.000       0.008     0.00
overlap               25       0.005       0.137     0.09
Setup_H0              25       0.475      11.883     7.38
naefs                 50       0.000       0.003     0.00
dnaefs                50       0.000       0.001     0.00
MolMec                50       0.000       0.000     0.00
kinefsm               50       0.003       0.138     0.09
nlefsm                50       0.010       0.497     0.31
DHSCF_Init            25       0.452      11.289     7.02
DHSCF1                25       0.046       1.153     0.72
InitMesh              25       0.046       1.152     0.72
INITMESH              25       0.000       0.000     0.00
DHSCF2                25       0.405      10.136     6.30
REMESH                25       0.021       0.532     0.33
REORD                905       0.001       0.895     0.56
PHION                 25       0.305       7.637     4.75
COMM_BSC            1484       0.001       1.004     0.62
POISON               377       0.039      14.809     9.20
fft                  754       0.015      11.606     7.21
setup_H              326       0.396     129.186    80.29
DHSCF                352       0.421     148.270    92.15
DHSCF3               352       0.397     139.750    86.85
rhoofd               352       0.041      14.461     8.99
XC                   352       0.275      96.763    60.14
GXC-CellXC           352       0.273      96.126    59.74
gridxc@cellXC        352       0.273      96.123    59.74
vmat                 351       0.029      10.079     6.26
IterSCF              301       0.397     119.438    74.23
compute_dm           301       0.000       0.113     0.07
diagon               301       0.000       0.100     0.06
r-eigvec             301       0.000       0.077     0.05
r-buildHS            301       0.000       0.003     0.00
rdiag                301       0.000       0.072     0.05
rdiag1               301       0.000       0.005     0.00
rdiag2               301       0.000       0.006     0.00
rdiag3               301       0.000       0.048     0.03
rdiag4               301       0.000       0.007     0.00
r-buildD             301       0.000       0.013     0.01
MIXER                276       0.000       0.016     0.01
PostSCF               25       0.737      18.427    11.45
FINAL_HF              25       0.737      18.426    11.45
DHSCF4                25       0.341       8.519     5.29
dfscf                 25       0.306       7.656     4.76
overfsm               25       0.000       0.012     0.01
writeHSX              25       0.000       0.009     0.01
state_analysis        25       0.001       0.021     0.01
siesta_move           25       0.001       0.022     0.01
Analysis               1       0.744       0.744     0.46
optical                1       0.000       0.000     0.00
partial-charges        1       0.350       0.350     0.22

>> End of run:  28-MAR-2025  15:25:12
Job completed